DIMENSION: 76
58
72
39
9
32
44
3
16
63
33
73
62
28
74
30
2
68
75
76
67
26
12
40
17
51
6
4
34
46
8
35
7
53
14
19
54
13
27
52
45
29
5
37
20
70
60
71
36
47
21
48
15
57
69
61
22
1
43
41
42
64
56
23
49
24
18
50
25
55
31
10
38
65
11
66
59
